examples/cmpl/tsp.osil
<?xml version="1.0" encoding="UTF-8"?> 
<osil xmlns="os.optimizationservices.org"  xmlns:xsi="http://www.w3.org/2001/XMLSchema-instance" xsi:schemaLocation="os.optimizationservices.org http://www.optimizationservices.org/schemas/2.0/OSiL.xsd">
	<instanceHeader>
		<name>tsp.cmpl</name>
		<description>generated by CMPL</description>
	</instanceHeader>
	<instanceData>
		<variables numberOfVariables="109">
			<var name="x[1,1]"  type="B" lb="0" ub="1"/>
			<var name="x[1,2]"  type="B" lb="0" ub="1"/>
			<var name="x[1,3]"  type="B" lb="0" ub="1"/>
			<var name="x[1,4]"  type="B" lb="0" ub="1"/>
			<var name="x[1,5]"  type="B" lb="0" ub="1"/>
			<var name="x[1,6]"  type="B" lb="0" ub="1"/>
			<var name="x[1,7]"  type="B" lb="0" ub="1"/>
			<var name="x[1,8]"  type="B" lb="0" ub="1"/>
			<var name="x[1,9]"  type="B" lb="0" ub="1"/>
			<var name="x[1,10]"  type="B" lb="0" ub="1"/>
			<var name="x[2,1]"  type="B" lb="0" ub="1"/>
			<var name="x[2,2]"  type="B" lb="0" ub="1"/>
			<var name="x[2,3]"  type="B" lb="0" ub="1"/>
			<var name="x[2,4]"  type="B" lb="0" ub="1"/>
			<var name="x[2,5]"  type="B" lb="0" ub="1"/>
			<var name="x[2,6]"  type="B" lb="0" ub="1"/>
			<var name="x[2,7]"  type="B" lb="0" ub="1"/>
			<var name="x[2,8]"  type="B" lb="0" ub="1"/>
			<var name="x[2,9]"  type="B" lb="0" ub="1"/>
			<var name="x[2,10]"  type="B" lb="0" ub="1"/>
			<var name="x[3,1]"  type="B" lb="0" ub="1"/>
			<var name="x[3,2]"  type="B" lb="0" ub="1"/>
			<var name="x[3,3]"  type="B" lb="0" ub="1"/>
			<var name="x[3,4]"  type="B" lb="0" ub="1"/>
			<var name="x[3,5]"  type="B" lb="0" ub="1"/>
			<var name="x[3,6]"  type="B" lb="0" ub="1"/>
			<var name="x[3,7]"  type="B" lb="0" ub="1"/>
			<var name="x[3,8]"  type="B" lb="0" ub="1"/>
			<var name="x[3,9]"  type="B" lb="0" ub="1"/>
			<var name="x[3,10]"  type="B" lb="0" ub="1"/>
			<var name="x[4,1]"  type="B" lb="0" ub="1"/>
			<var name="x[4,2]"  type="B" lb="0" ub="1"/>
			<var name="x[4,3]"  type="B" lb="0" ub="1"/>
			<var name="x[4,4]"  type="B" lb="0" ub="1"/>
			<var name="x[4,5]"  type="B" lb="0" ub="1"/>
			<var name="x[4,6]"  type="B" lb="0" ub="1"/>
			<var name="x[4,7]"  type="B" lb="0" ub="1"/>
			<var name="x[4,8]"  type="B" lb="0" ub="1"/>
			<var name="x[4,9]"  type="B" lb="0" ub="1"/>
			<var name="x[4,10]"  type="B" lb="0" ub="1"/>
			<var name="x[5,1]"  type="B" lb="0" ub="1"/>
			<var name="x[5,2]"  type="B" lb="0" ub="1"/>
			<var name="x[5,3]"  type="B" lb="0" ub="1"/>
			<var name="x[5,4]"  type="B" lb="0" ub="1"/>
			<var name="x[5,5]"  type="B" lb="0" ub="1"/>
			<var name="x[5,6]"  type="B" lb="0" ub="1"/>
			<var name="x[5,7]"  type="B" lb="0" ub="1"/>
			<var name="x[5,8]"  type="B" lb="0" ub="1"/>
			<var name="x[5,9]"  type="B" lb="0" ub="1"/>
			<var name="x[5,10]"  type="B" lb="0" ub="1"/>
			<var name="x[6,1]"  type="B" lb="0" ub="1"/>
			<var name="x[6,2]"  type="B" lb="0" ub="1"/>
			<var name="x[6,3]"  type="B" lb="0" ub="1"/>
			<var name="x[6,4]"  type="B" lb="0" ub="1"/>
			<var name="x[6,5]"  type="B" lb="0" ub="1"/>
			<var name="x[6,6]"  type="B" lb="0" ub="1"/>
			<var name="x[6,7]"  type="B" lb="0" ub="1"/>
			<var name="x[6,8]"  type="B" lb="0" ub="1"/>
			<var name="x[6,9]"  type="B" lb="0" ub="1"/>
			<var name="x[6,10]"  type="B" lb="0" ub="1"/>
			<var name="x[7,1]"  type="B" lb="0" ub="1"/>
			<var name="x[7,2]"  type="B" lb="0" ub="1"/>
			<var name="x[7,3]"  type="B" lb="0" ub="1"/>
			<var name="x[7,4]"  type="B" lb="0" ub="1"/>
			<var name="x[7,5]"  type="B" lb="0" ub="1"/>
			<var name="x[7,6]"  type="B" lb="0" ub="1"/>
			<var name="x[7,7]"  type="B" lb="0" ub="1"/>
			<var name="x[7,8]"  type="B" lb="0" ub="1"/>
			<var name="x[7,9]"  type="B" lb="0" ub="1"/>
			<var name="x[7,10]"  type="B" lb="0" ub="1"/>
			<var name="x[8,1]"  type="B" lb="0" ub="1"/>
			<var name="x[8,2]"  type="B" lb="0" ub="1"/>
			<var name="x[8,3]"  type="B" lb="0" ub="1"/>
			<var name="x[8,4]"  type="B" lb="0" ub="1"/>
			<var name="x[8,5]"  type="B" lb="0" ub="1"/>
			<var name="x[8,6]"  type="B" lb="0" ub="1"/>
			<var name="x[8,7]"  type="B" lb="0" ub="1"/>
			<var name="x[8,8]"  type="B" lb="0" ub="1"/>
			<var name="x[8,9]"  type="B" lb="0" ub="1"/>
			<var name="x[8,10]"  type="B" lb="0" ub="1"/>
			<var name="x[9,1]"  type="B" lb="0" ub="1"/>
			<var name="x[9,2]"  type="B" lb="0" ub="1"/>
			<var name="x[9,3]"  type="B" lb="0" ub="1"/>
			<var name="x[9,4]"  type="B" lb="0" ub="1"/>
			<var name="x[9,5]"  type="B" lb="0" ub="1"/>
			<var name="x[9,6]"  type="B" lb="0" ub="1"/>
			<var name="x[9,7]"  type="B" lb="0" ub="1"/>
			<var name="x[9,8]"  type="B" lb="0" ub="1"/>
			<var name="x[9,9]"  type="B" lb="0" ub="1"/>
			<var name="x[9,10]"  type="B" lb="0" ub="1"/>
			<var name="x[10,1]"  type="B" lb="0" ub="1"/>
			<var name="x[10,2]"  type="B" lb="0" ub="1"/>
			<var name="x[10,3]"  type="B" lb="0" ub="1"/>
			<var name="x[10,4]"  type="B" lb="0" ub="1"/>
			<var name="x[10,5]"  type="B" lb="0" ub="1"/>
			<var name="x[10,6]"  type="B" lb="0" ub="1"/>
			<var name="x[10,7]"  type="B" lb="0" ub="1"/>
			<var name="x[10,8]"  type="B" lb="0" ub="1"/>
			<var name="x[10,9]"  type="B" lb="0" ub="1"/>
			<var name="x[10,10]"  type="B" lb="0" ub="1"/>
			<var name="u[2]"  type="C" lb="0"/>
			<var name="u[3]"  type="C" lb="0"/>
			<var name="u[4]"  type="C" lb="0"/>
			<var name="u[5]"  type="C" lb="0"/>
			<var name="u[6]"  type="C" lb="0"/>
			<var name="u[7]"  type="C" lb="0"/>
			<var name="u[8]"  type="C" lb="0"/>
			<var name="u[9]"  type="C" lb="0"/>
			<var name="u[10]"  type="C" lb="0"/>
		</variables>
		<objectives numberOfObjectives="1">
			<obj name="distance" maxOrMin="min" numberOfObjCoef="100">
				<coef idx="0">10000</coef>
				<coef idx="1">74.106591</coef>
				<coef idx="2">73.531039</coef>
				<coef idx="3">37.849718</coef>
				<coef idx="4">80.746428</coef>
				<coef idx="5">90.132084</coef>
				<coef idx="6">104.445638</coef>
				<coef idx="7">66.897188</coef>
				<coef idx="8">108.576800</coef>
				<coef idx="9">63.367120</coef>
				<coef idx="10">75.106591</coef>
				<coef idx="11">10000</coef>
				<coef idx="12">89.672924</coef>
				<coef idx="13">68.589105</coef>
				<coef idx="14">65.926185</coef>
				<coef idx="15">100.200783</coef>
				<coef idx="16">34.383612</coef>
				<coef idx="17">31.675723</coef>
				<coef idx="18">92.323270</coef>
				<coef idx="19">92.609050</coef>
				<coef idx="20">76.531039</coef>
				<coef idx="21">97.672924</coef>
				<coef idx="22">10000</coef>
				<coef idx="23">45.118237</coef>
				<coef idx="24">45.944410</coef>
				<coef idx="25">15.180340</coef>
				<coef idx="26">102.074230</coef>
				<coef idx="27">70.604532</coef>
				<coef idx="28">42.965896</coef>
				<coef idx="29">8.071068</coef>
				<coef idx="30">39.849718</coef>
				<coef idx="31">71.589105</coef>
				<coef idx="32">38.118237</coef>
				<coef idx="33">10000</coef>
				<coef idx="34">49.777226</coef>
				<coef idx="35">50.041649</coef>
				<coef idx="36">87.367042</coef>
				<coef idx="37">52.235327</coef>
				<coef idx="38">69.202804</coef>
				<coef idx="39">30.060551</coef>
				<coef idx="40">78.746428</coef>
				<coef idx="41">60.926185</coef>
				<coef idx="42">44.944410</coef>
				<coef idx="43">44.777226</coef>
				<coef idx="44">10000</coef>
				<coef idx="45">39.221676</coef>
				<coef idx="46">61.603887</coef>
				<coef idx="47">27.413813</coef>
				<coef idx="48">28.000000</coef>
				<coef idx="49">39.600518</coef>
				<coef idx="50">87.132084</coef>
				<coef idx="51">102.200783</coef>
				<coef idx="52">11.180340</coef>
				<coef idx="53">48.041649</coef>
				<coef idx="54">45.221676</coef>
				<coef idx="55">10000</coef>
				<coef idx="56">103.788997</coef>
				<coef idx="57">74.552702</coef>
				<coef idx="58">30.121422</coef>
				<coef idx="59">12.000000</coef>
				<coef idx="60">103.445638</coef>
				<coef idx="61">35.383612</coef>
				<coef idx="62">101.074230</coef>
				<coef idx="63">87.367042</coef>
				<coef idx="64">56.603887</coef>
				<coef idx="65">101.788997</coef>
				<coef idx="66">10000</coef>
				<coef idx="67">40.132096</coef>
				<coef idx="68">72.059187</coef>
				<coef idx="69">91.371606</coef>
				<coef idx="70">72.897188</coef>
				<coef idx="71">30.675723</coef>
				<coef idx="72">70.604532</coef>
				<coef idx="73">53.235327</coef>
				<coef idx="74">30.413813</coef>
				<coef idx="75">73.552702</coef>
				<coef idx="76">34.132096</coef>
				<coef idx="77">10000</coef>
				<coef idx="78">56.723479</coef>
				<coef idx="79">59.600314</coef>
				<coef idx="80">102.576800</coef>
				<coef idx="81">88.323270</coef>
				<coef idx="82">43.965896</coef>
				<coef idx="83">64.202804</coef>
				<coef idx="84">29.000000</coef>
				<coef idx="85">37.121422</coef>
				<coef idx="86">76.059187</coef>
				<coef idx="87">57.723479</coef>
				<coef idx="88">10000</coef>
				<coef idx="89">44.146081</coef>
				<coef idx="90">72.367120</coef>
				<coef idx="91">90.609050</coef>
				<coef idx="92">7.071068</coef>
				<coef idx="93">33.060551</coef>
				<coef idx="94">38.600518</coef>
				<coef idx="95">15.000000</coef>
				<coef idx="96">94.371606</coef>
				<coef idx="97">63.600314</coef>
				<coef idx="98">41.146081</coef>
				<coef idx="99">10000</coef>
			</obj>
		</objectives>
		<constraints numberOfConstraints="92">
			<con name="sos_i_1" lb="1" ub="1"/>
			<con name="sos_i_2" lb="1" ub="1"/>
			<con name="sos_i_3" lb="1" ub="1"/>
			<con name="sos_i_4" lb="1" ub="1"/>
			<con name="sos_i_5" lb="1" ub="1"/>
			<con name="sos_i_6" lb="1" ub="1"/>
			<con name="sos_i_7" lb="1" ub="1"/>
			<con name="sos_i_8" lb="1" ub="1"/>
			<con name="sos_i_9" lb="1" ub="1"/>
			<con name="sos_i_10" lb="1" ub="1"/>
			<con name="sos_j_1" lb="1" ub="1"/>
			<con name="sos_j_2" lb="1" ub="1"/>
			<con name="sos_j_3" lb="1" ub="1"/>
			<con name="sos_j_4" lb="1" ub="1"/>
			<con name="sos_j_5" lb="1" ub="1"/>
			<con name="sos_j_6" lb="1" ub="1"/>
			<con name="sos_j_7" lb="1" ub="1"/>
			<con name="sos_j_8" lb="1" ub="1"/>
			<con name="sos_j_9" lb="1" ub="1"/>
			<con name="sos_j_10" lb="1" ub="1"/>
			<con name="noSubs_2_3" ub="9"/>
			<con name="noSubs_2_4" ub="9"/>
			<con name="noSubs_2_5" ub="9"/>
			<con name="noSubs_2_6" ub="9"/>
			<con name="noSubs_2_7" ub="9"/>
			<con name="noSubs_2_8" ub="9"/>
			<con name="noSubs_2_9" ub="9"/>
			<con name="noSubs_2_10" ub="9"/>
			<con name="noSubs_3_2" ub="9"/>
			<con name="noSubs_3_4" ub="9"/>
			<con name="noSubs_3_5" ub="9"/>
			<con name="noSubs_3_6" ub="9"/>
			<con name="noSubs_3_7" ub="9"/>
			<con name="noSubs_3_8" ub="9"/>
			<con name="noSubs_3_9" ub="9"/>
			<con name="noSubs_3_10" ub="9"/>
			<con name="noSubs_4_2" ub="9"/>
			<con name="noSubs_4_3" ub="9"/>
			<con name="noSubs_4_5" ub="9"/>
			<con name="noSubs_4_6" ub="9"/>
			<con name="noSubs_4_7" ub="9"/>
			<con name="noSubs_4_8" ub="9"/>
			<con name="noSubs_4_9" ub="9"/>
			<con name="noSubs_4_10" ub="9"/>
			<con name="noSubs_5_2" ub="9"/>
			<con name="noSubs_5_3" ub="9"/>
			<con name="noSubs_5_4" ub="9"/>
			<con name="noSubs_5_6" ub="9"/>
			<con name="noSubs_5_7" ub="9"/>
			<con name="noSubs_5_8" ub="9"/>
			<con name="noSubs_5_9" ub="9"/>
			<con name="noSubs_5_10" ub="9"/>
			<con name="noSubs_6_2" ub="9"/>
			<con name="noSubs_6_3" ub="9"/>
			<con name="noSubs_6_4" ub="9"/>
			<con name="noSubs_6_5" ub="9"/>
			<con name="noSubs_6_7" ub="9"/>
			<con name="noSubs_6_8" ub="9"/>
			<con name="noSubs_6_9" ub="9"/>
			<con name="noSubs_6_10" ub="9"/>
			<con name="noSubs_7_2" ub="9"/>
			<con name="noSubs_7_3" ub="9"/>
			<con name="noSubs_7_4" ub="9"/>
			<con name="noSubs_7_5" ub="9"/>
			<con name="noSubs_7_6" ub="9"/>
			<con name="noSubs_7_8" ub="9"/>
			<con name="noSubs_7_9" ub="9"/>
			<con name="noSubs_7_10" ub="9"/>
			<con name="noSubs_8_2" ub="9"/>
			<con name="noSubs_8_3" ub="9"/>
			<con name="noSubs_8_4" ub="9"/>
			<con name="noSubs_8_5" ub="9"/>
			<con name="noSubs_8_6" ub="9"/>
			<con name="noSubs_8_7" ub="9"/>
			<con name="noSubs_8_9" ub="9"/>
			<con name="noSubs_8_10" ub="9"/>
			<con name="noSubs_9_2" ub="9"/>
			<con name="noSubs_9_3" ub="9"/>
			<con name="noSubs_9_4" ub="9"/>
			<con name="noSubs_9_5" ub="9"/>
			<con name="noSubs_9_6" ub="9"/>
			<con name="noSubs_9_7" ub="9"/>
			<con name="noSubs_9_8" ub="9"/>
			<con name="noSubs_9_10" ub="9"/>
			<con name="noSubs_10_2" ub="9"/>
			<con name="noSubs_10_3" ub="9"/>
			<con name="noSubs_10_4" ub="9"/>
			<con name="noSubs_10_5" ub="9"/>
			<con name="noSubs_10_6" ub="9"/>
			<con name="noSubs_10_7" ub="9"/>
			<con name="noSubs_10_8" ub="9"/>
			<con name="noSubs_10_9" ub="9"/>
		</constraints>
		<linearConstraintCoefficients numberOfValues="416">
			<start>
				<el>0</el>
				<el>2</el>
				<el>4</el>
				<el>6</el>
				<el>8</el>
				<el>10</el>
				<el>12</el>
				<el>14</el>
				<el>16</el>
				<el>18</el>
				<el>20</el>
				<el>22</el>
				<el>24</el>
				<el>27</el>
				<el>30</el>
				<el>33</el>
				<el>36</el>
				<el>39</el>
				<el>42</el>
				<el>45</el>
				<el>48</el>
				<el>50</el>
				<el>53</el>
				<el>55</el>
				<el>58</el>
				<el>61</el>
				<el>64</el>
				<el>67</el>
				<el>70</el>
				<el>73</el>
				<el>76</el>
				<el>78</el>
				<el>81</el>
				<el>84</el>
				<el>86</el>
				<el>89</el>
				<el>92</el>
				<el>95</el>
				<el>98</el>
				<el>101</el>
				<el>104</el>
				<el>106</el>
				<el>109</el>
				<el>112</el>
				<el>115</el>
				<el>117</el>
				<el>120</el>
				<el>123</el>
				<el>126</el>
				<el>129</el>
				<el>132</el>
				<el>134</el>
				<el>137</el>
				<el>140</el>
				<el>143</el>
				<el>146</el>
				<el>148</el>
				<el>151</el>
				<el>154</el>
				<el>157</el>
				<el>160</el>
				<el>162</el>
				<el>165</el>
				<el>168</el>
				<el>171</el>
				<el>174</el>
				<el>177</el>
				<el>179</el>
				<el>182</el>
				<el>185</el>
				<el>188</el>
				<el>190</el>
				<el>193</el>
				<el>196</el>
				<el>199</el>
				<el>202</el>
				<el>205</el>
				<el>208</el>
				<el>210</el>
				<el>213</el>
				<el>216</el>
				<el>218</el>
				<el>221</el>
				<el>224</el>
				<el>227</el>
				<el>230</el>
				<el>233</el>
				<el>236</el>
				<el>239</el>
				<el>241</el>
				<el>244</el>
				<el>246</el>
				<el>249</el>
				<el>252</el>
				<el>255</el>
				<el>258</el>
				<el>261</el>
				<el>264</el>
				<el>267</el>
				<el>270</el>
				<el>272</el>
				<el>288</el>
				<el>304</el>
				<el>320</el>
				<el>336</el>
				<el>352</el>
				<el>368</el>
				<el>384</el>
				<el>400</el>
				<el>416</el>
			</start>
			<rowIdx>
				<el>0</el>
				<el>10</el>
				<el>1</el>
				<el>10</el>
				<el>2</el>
				<el>10</el>
				<el>3</el>
				<el>10</el>
				<el>4</el>
				<el>10</el>
				<el>5</el>
				<el>10</el>
				<el>6</el>
				<el>10</el>
				<el>7</el>
				<el>10</el>
				<el>8</el>
				<el>10</el>
				<el>9</el>
				<el>10</el>
				<el>0</el>
				<el>11</el>
				<el>1</el>
				<el>11</el>
				<el>2</el>
				<el>11</el>
				<el>20</el>
				<el>3</el>
				<el>11</el>
				<el>21</el>
				<el>4</el>
				<el>11</el>
				<el>22</el>
				<el>5</el>
				<el>11</el>
				<el>23</el>
				<el>6</el>
				<el>11</el>
				<el>24</el>
				<el>7</el>
				<el>11</el>
				<el>25</el>
				<el>8</el>
				<el>11</el>
				<el>26</el>
				<el>9</el>
				<el>11</el>
				<el>27</el>
				<el>0</el>
				<el>12</el>
				<el>1</el>
				<el>12</el>
				<el>28</el>
				<el>2</el>
				<el>12</el>
				<el>3</el>
				<el>12</el>
				<el>29</el>
				<el>4</el>
				<el>12</el>
				<el>30</el>
				<el>5</el>
				<el>12</el>
				<el>31</el>
				<el>6</el>
				<el>12</el>
				<el>32</el>
				<el>7</el>
				<el>12</el>
				<el>33</el>
				<el>8</el>
				<el>12</el>
				<el>34</el>
				<el>9</el>
				<el>12</el>
				<el>35</el>
				<el>0</el>
				<el>13</el>
				<el>1</el>
				<el>13</el>
				<el>36</el>
				<el>2</el>
				<el>13</el>
				<el>37</el>
				<el>3</el>
				<el>13</el>
				<el>4</el>
				<el>13</el>
				<el>38</el>
				<el>5</el>
				<el>13</el>
				<el>39</el>
				<el>6</el>
				<el>13</el>
				<el>40</el>
				<el>7</el>
				<el>13</el>
				<el>41</el>
				<el>8</el>
				<el>13</el>
				<el>42</el>
				<el>9</el>
				<el>13</el>
				<el>43</el>
				<el>0</el>
				<el>14</el>
				<el>1</el>
				<el>14</el>
				<el>44</el>
				<el>2</el>
				<el>14</el>
				<el>45</el>
				<el>3</el>
				<el>14</el>
				<el>46</el>
				<el>4</el>
				<el>14</el>
				<el>5</el>
				<el>14</el>
				<el>47</el>
				<el>6</el>
				<el>14</el>
				<el>48</el>
				<el>7</el>
				<el>14</el>
				<el>49</el>
				<el>8</el>
				<el>14</el>
				<el>50</el>
				<el>9</el>
				<el>14</el>
				<el>51</el>
				<el>0</el>
				<el>15</el>
				<el>1</el>
				<el>15</el>
				<el>52</el>
				<el>2</el>
				<el>15</el>
				<el>53</el>
				<el>3</el>
				<el>15</el>
				<el>54</el>
				<el>4</el>
				<el>15</el>
				<el>55</el>
				<el>5</el>
				<el>15</el>
				<el>6</el>
				<el>15</el>
				<el>56</el>
				<el>7</el>
				<el>15</el>
				<el>57</el>
				<el>8</el>
				<el>15</el>
				<el>58</el>
				<el>9</el>
				<el>15</el>
				<el>59</el>
				<el>0</el>
				<el>16</el>
				<el>1</el>
				<el>16</el>
				<el>60</el>
				<el>2</el>
				<el>16</el>
				<el>61</el>
				<el>3</el>
				<el>16</el>
				<el>62</el>
				<el>4</el>
				<el>16</el>
				<el>63</el>
				<el>5</el>
				<el>16</el>
				<el>64</el>
				<el>6</el>
				<el>16</el>
				<el>7</el>
				<el>16</el>
				<el>65</el>
				<el>8</el>
				<el>16</el>
				<el>66</el>
				<el>9</el>
				<el>16</el>
				<el>67</el>
				<el>0</el>
				<el>17</el>
				<el>1</el>
				<el>17</el>
				<el>68</el>
				<el>2</el>
				<el>17</el>
				<el>69</el>
				<el>3</el>
				<el>17</el>
				<el>70</el>
				<el>4</el>
				<el>17</el>
				<el>71</el>
				<el>5</el>
				<el>17</el>
				<el>72</el>
				<el>6</el>
				<el>17</el>
				<el>73</el>
				<el>7</el>
				<el>17</el>
				<el>8</el>
				<el>17</el>
				<el>74</el>
				<el>9</el>
				<el>17</el>
				<el>75</el>
				<el>0</el>
				<el>18</el>
				<el>1</el>
				<el>18</el>
				<el>76</el>
				<el>2</el>
				<el>18</el>
				<el>77</el>
				<el>3</el>
				<el>18</el>
				<el>78</el>
				<el>4</el>
				<el>18</el>
				<el>79</el>
				<el>5</el>
				<el>18</el>
				<el>80</el>
				<el>6</el>
				<el>18</el>
				<el>81</el>
				<el>7</el>
				<el>18</el>
				<el>82</el>
				<el>8</el>
				<el>18</el>
				<el>9</el>
				<el>18</el>
				<el>83</el>
				<el>0</el>
				<el>19</el>
				<el>1</el>
				<el>19</el>
				<el>84</el>
				<el>2</el>
				<el>19</el>
				<el>85</el>
				<el>3</el>
				<el>19</el>
				<el>86</el>
				<el>4</el>
				<el>19</el>
				<el>87</el>
				<el>5</el>
				<el>19</el>
				<el>88</el>
				<el>6</el>
				<el>19</el>
				<el>89</el>
				<el>7</el>
				<el>19</el>
				<el>90</el>
				<el>8</el>
				<el>19</el>
				<el>91</el>
				<el>9</el>
				<el>19</el>
				<el>20</el>
				<el>21</el>
				<el>22</el>
				<el>23</el>
				<el>24</el>
				<el>25</el>
				<el>26</el>
				<el>27</el>
				<el>28</el>
				<el>36</el>
				<el>44</el>
				<el>52</el>
				<el>60</el>
				<el>68</el>
				<el>76</el>
				<el>84</el>
				<el>20</el>
				<el>28</el>
				<el>29</el>
				<el>30</el>
				<el>31</el>
				<el>32</el>
				<el>33</el>
				<el>34</el>
				<el>35</el>
				<el>37</el>
				<el>45</el>
				<el>53</el>
				<el>61</el>
				<el>69</el>
				<el>77</el>
				<el>85</el>
				<el>21</el>
				<el>29</el>
				<el>36</el>
				<el>37</el>
				<el>38</el>
				<el>39</el>
				<el>40</el>
				<el>41</el>
				<el>42</el>
				<el>43</el>
				<el>46</el>
				<el>54</el>
				<el>62</el>
				<el>70</el>
				<el>78</el>
				<el>86</el>
				<el>22</el>
				<el>30</el>
				<el>38</el>
				<el>44</el>
				<el>45</el>
				<el>46</el>
				<el>47</el>
				<el>48</el>
				<el>49</el>
				<el>50</el>
				<el>51</el>
				<el>55</el>
				<el>63</el>
				<el>71</el>
				<el>79</el>
				<el>87</el>
				<el>23</el>
				<el>31</el>
				<el>39</el>
				<el>47</el>
				<el>52</el>
				<el>53</el>
				<el>54</el>
				<el>55</el>
				<el>56</el>
				<el>57</el>
				<el>58</el>
				<el>59</el>
				<el>64</el>
				<el>72</el>
				<el>80</el>
				<el>88</el>
				<el>24</el>
				<el>32</el>
				<el>40</el>
				<el>48</el>
				<el>56</el>
				<el>60</el>
				<el>61</el>
				<el>62</el>
				<el>63</el>
				<el>64</el>
				<el>65</el>
				<el>66</el>
				<el>67</el>
				<el>73</el>
				<el>81</el>
				<el>89</el>
				<el>25</el>
				<el>33</el>
				<el>41</el>
				<el>49</el>
				<el>57</el>
				<el>65</el>
				<el>68</el>
				<el>69</el>
				<el>70</el>
				<el>71</el>
				<el>72</el>
				<el>73</el>
				<el>74</el>
				<el>75</el>
				<el>82</el>
				<el>90</el>
				<el>26</el>
				<el>34</el>
				<el>42</el>
				<el>50</el>
				<el>58</el>
				<el>66</el>
				<el>74</el>
				<el>76</el>
				<el>77</el>
				<el>78</el>
				<el>79</el>
				<el>80</el>
				<el>81</el>
				<el>82</el>
				<el>83</el>
				<el>91</el>
				<el>27</el>
				<el>35</el>
				<el>43</el>
				<el>51</el>
				<el>59</el>
				<el>67</el>
				<el>75</el>
				<el>83</el>
				<el>84</el>
				<el>85</el>
				<el>86</el>
				<el>87</el>
				<el>88</el>
				<el>89</el>
				<el>90</el>
				<el>91</el>
			</rowIdx>
			<value>
				<el>1</el>
				<el>1</el>
				<el>1</el>
				<el>1</el>
				<el>1</el>
				<el>1</el>
				<el>1</el>
				<el>1</el>
				<el>1</el>
				<el>1</el>
				<el>1</el>
				<el>1</el>
				<el>1</el>
				<el>1</el>
				<el>1</el>
				<el>1</el>
				<el>1</el>
				<el>1</el>
				<el>1</el>
				<el>1</el>
				<el>1</el>
				<el>1</el>
				<el>1</el>
				<el>1</el>
				<el>1</el>
				<el>1</el>
				<el>10</el>
				<el>1</el>
				<el>1</el>
				<el>10</el>
				<el>1</el>
				<el>1</el>
				<el>10</el>
				<el>1</el>
				<el>1</el>
				<el>10</el>
				<el>1</el>
				<el>1</el>
				<el>10</el>
				<el>1</el>
				<el>1</el>
				<el>10</el>
				<el>1</el>
				<el>1</el>
				<el>10</el>
				<el>1</el>
				<el>1</el>
				<el>10</el>
				<el>1</el>
				<el>1</el>
				<el>1</el>
				<el>1</el>
				<el>10</el>
				<el>1</el>
				<el>1</el>
				<el>1</el>
				<el>1</el>
				<el>10</el>
				<el>1</el>
				<el>1</el>
				<el>10</el>
				<el>1</el>
				<el>1</el>
				<el>10</el>
				<el>1</el>
				<el>1</el>
				<el>10</el>
				<el>1</el>
				<el>1</el>
				<el>10</el>
				<el>1</el>
				<el>1</el>
				<el>10</el>
				<el>1</el>
				<el>1</el>
				<el>10</el>
				<el>1</el>
				<el>1</el>
				<el>1</el>
				<el>1</el>
				<el>10</el>
				<el>1</el>
				<el>1</el>
				<el>10</el>
				<el>1</el>
				<el>1</el>
				<el>1</el>
				<el>1</el>
				<el>10</el>
				<el>1</el>
				<el>1</el>
				<el>10</el>
				<el>1</el>
				<el>1</el>
				<el>10</el>
				<el>1</el>
				<el>1</el>
				<el>10</el>
				<el>1</el>
				<el>1</el>
				<el>10</el>
				<el>1</el>
				<el>1</el>
				<el>10</el>
				<el>1</el>
				<el>1</el>
				<el>1</el>
				<el>1</el>
				<el>10</el>
				<el>1</el>
				<el>1</el>
				<el>10</el>
				<el>1</el>
				<el>1</el>
				<el>10</el>
				<el>1</el>
				<el>1</el>
				<el>1</el>
				<el>1</el>
				<el>10</el>
				<el>1</el>
				<el>1</el>
				<el>10</el>
				<el>1</el>
				<el>1</el>
				<el>10</el>
				<el>1</el>
				<el>1</el>
				<el>10</el>
				<el>1</el>
				<el>1</el>
				<el>10</el>
				<el>1</el>
				<el>1</el>
				<el>1</el>
				<el>1</el>
				<el>10</el>
				<el>1</el>
				<el>1</el>
				<el>10</el>
				<el>1</el>
				<el>1</el>
				<el>10</el>
				<el>1</el>
				<el>1</el>
				<el>10</el>
				<el>1</el>
				<el>1</el>
				<el>1</el>
				<el>1</el>
				<el>10</el>
				<el>1</el>
				<el>1</el>
				<el>10</el>
				<el>1</el>
				<el>1</el>
				<el>10</el>
				<el>1</el>
				<el>1</el>
				<el>10</el>
				<el>1</el>
				<el>1</el>
				<el>1</el>
				<el>1</el>
				<el>10</el>
				<el>1</el>
				<el>1</el>
				<el>10</el>
				<el>1</el>
				<el>1</el>
				<el>10</el>
				<el>1</el>
				<el>1</el>
				<el>10</el>
				<el>1</el>
				<el>1</el>
				<el>10</el>
				<el>1</el>
				<el>1</el>
				<el>1</el>
				<el>1</el>
				<el>10</el>
				<el>1</el>
				<el>1</el>
				<el>10</el>
				<el>1</el>
				<el>1</el>
				<el>10</el>
				<el>1</el>
				<el>1</el>
				<el>1</el>
				<el>1</el>
				<el>10</el>
				<el>1</el>
				<el>1</el>
				<el>10</el>
				<el>1</el>
				<el>1</el>
				<el>10</el>
				<el>1</el>
				<el>1</el>
				<el>10</el>
				<el>1</el>
				<el>1</el>
				<el>10</el>
				<el>1</el>
				<el>1</el>
				<el>10</el>
				<el>1</el>
				<el>1</el>
				<el>1</el>
				<el>1</el>
				<el>10</el>
				<el>1</el>
				<el>1</el>
				<el>10</el>
				<el>1</el>
				<el>1</el>
				<el>1</el>
				<el>1</el>
				<el>10</el>
				<el>1</el>
				<el>1</el>
				<el>10</el>
				<el>1</el>
				<el>1</el>
				<el>10</el>
				<el>1</el>
				<el>1</el>
				<el>10</el>
				<el>1</el>
				<el>1</el>
				<el>10</el>
				<el>1</el>
				<el>1</el>
				<el>10</el>
				<el>1</el>
				<el>1</el>
				<el>10</el>
				<el>1</el>
				<el>1</el>
				<el>1</el>
				<el>1</el>
				<el>10</el>
				<el>1</el>
				<el>1</el>
				<el>1</el>
				<el>1</el>
				<el>10</el>
				<el>1</el>
				<el>1</el>
				<el>10</el>
				<el>1</el>
				<el>1</el>
				<el>10</el>
				<el>1</el>
				<el>1</el>
				<el>10</el>
				<el>1</el>
				<el>1</el>
				<el>10</el>
				<el>1</el>
				<el>1</el>
				<el>10</el>
				<el>1</el>
				<el>1</el>
				<el>10</el>
				<el>1</el>
				<el>1</el>
				<el>10</el>
				<el>1</el>
				<el>1</el>
				<el>1</el>
				<el>1</el>
				<el>1</el>
				<el>1</el>
				<el>1</el>
				<el>1</el>
				<el>1</el>
				<el>1</el>
				<el>-1</el>
				<el>-1</el>
				<el>-1</el>
				<el>-1</el>
				<el>-1</el>
				<el>-1</el>
				<el>-1</el>
				<el>-1</el>
				<el>-1</el>
				<el>1</el>
				<el>1</el>
				<el>1</el>
				<el>1</el>
				<el>1</el>
				<el>1</el>
				<el>1</el>
				<el>1</el>
				<el>-1</el>
				<el>-1</el>
				<el>-1</el>
				<el>-1</el>
				<el>-1</el>
				<el>-1</el>
				<el>-1</el>
				<el>-1</el>
				<el>-1</el>
				<el>1</el>
				<el>1</el>
				<el>1</el>
				<el>1</el>
				<el>1</el>
				<el>1</el>
				<el>1</el>
				<el>1</el>
				<el>-1</el>
				<el>-1</el>
				<el>-1</el>
				<el>-1</el>
				<el>-1</el>
				<el>-1</el>
				<el>-1</el>
				<el>-1</el>
				<el>-1</el>
				<el>1</el>
				<el>1</el>
				<el>1</el>
				<el>1</el>
				<el>1</el>
				<el>1</el>
				<el>1</el>
				<el>1</el>
				<el>-1</el>
				<el>-1</el>
				<el>-1</el>
				<el>-1</el>
				<el>-1</el>
				<el>-1</el>
				<el>-1</el>
				<el>-1</el>
				<el>-1</el>
				<el>1</el>
				<el>1</el>
				<el>1</el>
				<el>1</el>
				<el>1</el>
				<el>1</el>
				<el>1</el>
				<el>1</el>
				<el>-1</el>
				<el>-1</el>
				<el>-1</el>
				<el>-1</el>
				<el>-1</el>
				<el>-1</el>
				<el>-1</el>
				<el>-1</el>
				<el>-1</el>
				<el>1</el>
				<el>1</el>
				<el>1</el>
				<el>1</el>
				<el>1</el>
				<el>1</el>
				<el>1</el>
				<el>1</el>
				<el>-1</el>
				<el>-1</el>
				<el>-1</el>
				<el>-1</el>
				<el>-1</el>
				<el>-1</el>
				<el>-1</el>
				<el>-1</el>
				<el>-1</el>
				<el>1</el>
				<el>1</el>
				<el>1</el>
				<el>1</el>
				<el>1</el>
				<el>1</el>
				<el>1</el>
				<el>1</el>
				<el>-1</el>
				<el>-1</el>
				<el>-1</el>
				<el>-1</el>
				<el>-1</el>
				<el>-1</el>
				<el>-1</el>
				<el>-1</el>
				<el>-1</el>
				<el>1</el>
				<el>1</el>
				<el>1</el>
				<el>1</el>
				<el>1</el>
				<el>1</el>
				<el>1</el>
				<el>1</el>
				<el>-1</el>
				<el>-1</el>
				<el>-1</el>
				<el>-1</el>
				<el>-1</el>
				<el>-1</el>
				<el>-1</el>
				<el>-1</el>
				<el>-1</el>
				<el>1</el>
				<el>1</el>
				<el>1</el>
				<el>1</el>
				<el>1</el>
				<el>1</el>
				<el>1</el>
				<el>1</el>
			</value>
		</linearConstraintCoefficients>
	</instanceData>
</osil>