examples/cmpl/tsp.osol
<?xml version="1.0" encoding="UTF-8"?>
<osol xmlns="os.optimizationservices.org"
     xmlns:xs="http://www.w3.org/2001/XMLSchema" 
     xmlns:xsi="http://www.w3.org/2001/XMLSchema-instance" 
     xsi:schemaLocation="os.optimizationservices.org http://www.optimizationservices.org/schemas/OSoL.xsd">
       <optimization>
          <solverOptions numberOfSolverOptions="1">
          <solverOption name="threads"  solver="cbc"  value="2"  />
       </solverOptions>
   </optimization>
</osol>
